
Welcome to IBM(R) ILOG(R) CPLEX(R) Interactive Optimizer 22.1.1.0
  with Simplex, Mixed Integer & Barrier Optimizers
5725-A06 5725-A29 5724-Y48 5724-Y49 5724-Y54 5724-Y55 5655-Y21
Copyright IBM Corp. 1988, 2022.  All Rights Reserved.

Type 'help' for a list of available commands.
Type 'help' followed by a command name for more
information on commands.

CPLEX> Selected objective sense:  MINIMIZE
Selected objective  name:  00000000
Selected RHS        name:  RHS1
Selected bound      name:  BOUND
Problem 'ee.mps' read.
Read time = 0.03 sec. (3.14 ticks)
CPLEX> New value for time limit in seconds: 7200
CPLEX> New value for parallel optimization mode: -1
CPLEX> New value for default parallel thread count: 40
CPLEX> New value for mixed integer optimality gap tolerance: 1e-13
CPLEX> Version identifier: 22.1.1.0 | 2022-11-28 | 9160aff4d
CPXPARAM_Threads                                 40
CPXPARAM_Parallel                                -1
CPXPARAM_TimeLimit                               7200
CPXPARAM_MIP_Tolerances_MIPGap                   1e-13
Found incumbent of value 0.000000 after 0.00 sec. (0.31 ticks)
Tried aggregator 2 times.
MIP Presolve eliminated 182 rows and 2745 columns.
MIP Presolve modified 5862 coefficients.
Aggregator did 713 substitutions.
Reduced MIP has 3624 rows, 7744 columns, and 28667 nonzeros.
Reduced MIP has 7744 binaries, 0 generals, 0 SOSs, and 0 indicators.
Presolve time = 0.07 sec. (68.81 ticks)
Probing time = 0.03 sec. (5.31 ticks)
Tried aggregator 1 time.
Detecting symmetries...
Reduced MIP has 3624 rows, 7744 columns, and 28667 nonzeros.
Reduced MIP has 7744 binaries, 0 generals, 0 SOSs, and 0 indicators.
Presolve time = 0.03 sec. (21.96 ticks)
Probing time = 0.02 sec. (5.09 ticks)
Clique table members: 18558.
MIP emphasis: balance optimality and feasibility.
MIP search method: dynamic search.
Parallel mode: opportunistic, using up to 40 threads.
Root relaxation solution time = 0.13 sec. (113.22 ticks)

        Nodes                                         Cuts/
   Node  Left     Objective  IInf  Best Integer    Best Bound    ItCnt     Gap

*     0+    0                            0.0000  -1.31000e+13              --- 
*     0+    0                      -7.70000e+12  -1.31000e+13            70.13%
      0     0  -1.30900e+13    85  -7.70000e+12  -1.30900e+13     2545   70.00%
*     0+    0                      -8.69000e+12  -1.30900e+13            50.63%
*     0+    0                      -1.30900e+13  -1.30900e+13             0.00%
      0     0  -1.30900e+13   214  -1.30900e+13      Cuts: 51     3065    0.00%
*     0+    0                      -1.30900e+13  -1.30900e+13             0.00%
      0     0  -1.30900e+13   225  -1.30900e+13     Cuts: 118     3214    0.00%
*     0+    0                      -1.30900e+13  -1.30900e+13             0.00%
*     0+    0                      -1.30900e+13  -1.30900e+13             0.00%
*     0+    0                      -1.30900e+13  -1.30900e+13             0.00%
      0    14    infeasible        -1.30900e+13  -1.30900e+13    18986    0.00%
Elapsed time = 2.43 sec. (1161.90 ticks, tree = 0.02 MB, solutions = 9)
    485    12  -1.30900e+13    77  -1.30900e+13  -1.30900e+13    48864    0.00%
   1576    90        cutoff        -1.30900e+13  -1.30900e+13    61158    0.00%
   2752    75  -1.30900e+13    72  -1.30900e+13  -1.30900e+13    58567    0.00%
   3369    26  -1.30900e+13   111  -1.30900e+13  -1.30900e+13   153508    0.00%
   3553    14  -1.30900e+13   140  -1.30900e+13  -1.30900e+13   146975    0.00%

GUB cover cuts applied:  4
Clique cuts applied:  15
Cover cuts applied:  371
Flow cuts applied:  1
Mixed integer rounding cuts applied:  10
Zero-half cuts applied:  17
Lift and project cuts applied:  5
Gomory fractional cuts applied:  16

Root node processing (before b&c):
  Real time             =    1.27 sec. (1152.77 ticks)
Parallel b&c, 40 threads:
  Real time             =    3.44 sec. (1347.83 ticks)
  Sync time (average)   =    1.86 sec.
  Wait time (average)   =    0.00 sec.
                          ------------
Total (root+branch&cut) =    4.71 sec. (2500.61 ticks)

Solution pool: 9 solutions saved.

MIP - Integer optimal solution:  Objective = -1.3089998690e+13
Solution time =    4.84 sec.  Iterations = 154618  Nodes = 3616
Deterministic time = 2500.64 ticks  (516.75 ticks/sec)

CPLEX> Solution 'p10' written to file 'ee.sol'.
CPLEX> 